p edge 40 120
e 1 7
e 1 18
e 1 24
e 2 16
e 2 34
e 2 36
e 3 10
e 3 13
e 3 27
e 4 3
e 4 22
e 4 28
e 5 4
e 5 11
e 5 20
e 6 7
e 6 21
e 6 27
e 7 12
e 7 13
e 7 17
e 8 9
e 8 23
e 8 30
e 9 4
e 9 11
e 9 23
e 10 3
e 10 16
e 10 28
e 11 19
e 11 23
e 11 30
e 12 8
e 12 17
e 12 34
e 13 3
e 13 12
e 13 30
e 14 22
e 14 25
e 14 40
e 15 5
e 15 18
e 15 39
e 16 11
e 16 14
e 16 36
e 17 7
e 17 12
e 17 21
e 18 23
e 18 34
e 18 37
e 19 2
e 19 11
e 19 37
e 20 5
e 20 6
e 20 26
e 21 8
e 21 17
e 21 26
e 22 7
e 22 10
e 22 34
e 23 5
e 23 16
e 23 18
e 24 15
e 24 23
e 24 26
e 25 5
e 25 8
e 25 35
e 26 4
e 26 8
e 26 31
e 27 9
e 27 19
e 27 37
e 28 4
e 28 25
e 28 29
e 29 12
e 29 35
e 29 40
e 30 13
e 30 21
e 30 37
e 31 9
e 31 13
e 31 20
e 32 15
e 32 27
e 32 27
e 33 11
e 33 20
e 33 36
e 34 19
e 34 28
e 34 35
e 35 2
e 35 18
e 35 23
e 36 13
e 36 13
e 36 38
e 37 1
e 37 7
e 37 22
e 38 2
e 38 10
e 38 26
e 39 1
e 39 5
e 39 20
e 40 10
e 40 32
e 40 38
